NAME: berlin52.tour
TYPE: TOUR
COMMENT: 16263 iterations, 8040 distance
DIMENSION: 52
1
32
45
19
41
8
9
10
33
43
15
5
38
40
39
36
49
35
34
37
48
24
6
4
25
12
51
11
52
14
13
27
28
26
47
46
44
16
29
50
20
23
30
2
7
42
21
17
3
18
31
22
-1
EOF
